c Instancia generada aleatoriamente
p edge 50 320
e 1 4
e 1 9
e 1 13
e 1 16
e 1 23
e 1 27
e 1 31
e 1 33
e 1 41
e 1 44
e 1 46
e 2 11
e 2 13
e 2 35
e 2 36
e 2 37
e 2 38
e 2 42
e 2 43
e 2 46
e 2 48
e 2 50
e 3 4
e 3 6
e 3 11
e 3 14
e 3 23
e 3 30
e 3 32
e 3 34
e 3 36
e 3 40
e 3 41
e 3 44
e 3 45
e 3 47
e 4 9
e 4 10
e 4 11
e 4 15
e 4 19
e 4 22
e 4 23
e 4 26
e 4 28
e 4 31
e 4 36
e 4 44
e 5 6
e 5 10
e 5 11
e 5 15
e 5 16
e 5 18
e 5 23
e 5 25
e 5 30
e 5 32
e 5 34
e 5 41
e 5 45
e 6 7
e 6 18
e 6 25
e 6 27
e 6 34
e 6 41
e 6 42
e 6 44
e 6 47
e 7 10
e 7 14
e 7 30
e 7 31
e 7 33
e 7 36
e 7 37
e 7 38
e 7 39
e 7 50
e 8 14
e 8 17
e 8 18
e 8 24
e 8 25
e 8 27
e 8 30
e 8 31
e 8 32
e 8 39
e 8 40
e 8 45
e 8 49
e 8 50
e 9 17
e 9 21
e 9 28
e 9 30
e 9 38
e 9 39
e 9 41
e 10 14
e 10 20
e 10 23
e 10 30
e 10 31
e 10 34
e 10 42
e 10 43
e 10 45
e 10 48
e 10 49
e 11 12
e 11 13
e 11 14
e 11 18
e 11 28
e 11 29
e 11 36
e 11 43
e 11 44
e 12 13
e 12 19
e 12 24
e 12 28
e 12 29
e 12 32
e 12 45
e 12 46
e 12 47
e 12 49
e 13 16
e 13 18
e 13 20
e 13 21
e 13 24
e 13 27
e 13 36
e 13 41
e 13 43
e 14 18
e 14 20
e 14 25
e 14 31
e 14 34
e 14 45
e 15 21
e 15 22
e 15 23
e 15 32
e 15 37
e 15 38
e 15 41
e 15 42
e 15 50
e 16 34
e 16 36
e 16 40
e 16 43
e 16 44
e 16 47
e 16 50
e 17 18
e 17 20
e 17 26
e 17 29
e 17 32
e 17 34
e 17 38
e 17 45
e 17 49
e 18 23
e 18 24
e 18 25
e 18 28
e 18 33
e 18 36
e 18 38
e 18 39
e 18 47
e 18 48
e 18 49
e 19 22
e 19 27
e 19 35
e 19 42
e 19 43
e 19 44
e 19 45
e 19 47
e 19 50
e 20 24
e 20 29
e 20 36
e 20 44
e 20 48
e 21 22
e 21 23
e 21 25
e 21 26
e 21 34
e 21 40
e 21 44
e 21 46
e 21 49
e 21 50
e 22 23
e 22 25
e 22 33
e 22 35
e 22 37
e 22 38
e 22 39
e 22 40
e 22 41
e 22 42
e 23 26
e 23 28
e 23 32
e 23 33
e 23 40
e 23 41
e 23 44
e 23 45
e 23 48
e 24 29
e 24 33
e 24 36
e 24 43
e 24 46
e 25 26
e 25 31
e 25 32
e 25 43
e 26 27
e 26 31
e 26 34
e 26 35
e 26 49
e 27 32
e 27 35
e 27 36
e 27 39
e 27 46
e 28 29
e 28 31
e 28 35
e 28 36
e 28 39
e 28 41
e 29 30
e 29 42
e 29 50
e 30 37
e 30 47
e 30 50
e 31 35
e 31 36
e 31 38
e 31 45
e 31 49
e 32 33
e 32 34
e 32 35
e 32 41
e 32 42
e 32 47
e 33 38
e 33 40
e 33 41
e 33 43
e 33 45
e 33 47
e 33 48
e 33 50
e 34 38
e 34 40
e 34 42
e 34 50
e 35 37
e 35 39
e 35 41
e 35 44
e 35 48
e 35 49
e 36 38
e 36 40
e 36 44
e 37 38
e 37 40
e 37 41
e 37 47
e 37 49
e 37 50
e 38 39
e 38 41
e 38 44
e 38 47
e 38 49
e 38 50
e 39 41
e 39 43
e 39 45
e 39 47
e 39 49
e 39 50
e 40 43
e 40 48
e 41 47
e 41 48
e 42 44
e 43 46
e 44 46
e 44 48
e 44 49
e 44 50
e 45 49
e 46 47
e 47 50
e 48 49
